<?xml version = "1.0" standalone="yes"?>
<!-- This file has been generated by DOcplex version 2.23.222  -->
<CPLEXSolution version="1.0">
 <header
   problemName="CVRP"
   objectiveValue="9858.41"
  />
 <variables>
  <variable name="x_0_1" index="0" value="1.00000"/>
  <variable name="x_0_5" index="4" value="1.00000"/>
  <variable name="x_0_6" index="5" value="1.00000"/>
  <variable name="x_0_8" index="7" value="1.00000"/>
  <variable name="x_0_10" index="9" value="1.00000"/>
  <variable name="x_0_11" index="10" value="1.00000"/>
  <variable name="x_0_12" index="11" value="1.00000"/>
  <variable name="x_1_3" index="14" value="1.00000"/>
  <variable name="x_2_0" index="24" value="1.00000"/>
  <variable name="x_3_9" index="44" value="1.00000"/>
  <variable name="x_4_0" index="48" value="1.00000"/>
  <variable name="x_5_0" index="60" value="1.00000"/>
  <variable name="x_6_7" index="78" value="1.00000"/>
  <variable name="x_7_0" index="84" value="1.00000"/>
  <variable name="x_8_4" index="100" value="1.00000"/>
  <variable name="x_9_2" index="110" value="1.00000"/>
  <variable name="x_10_0" index="120" value="1.00000"/>
  <variable name="x_11_0" index="132" value="1.00000"/>
  <variable name="x_12_0" index="144" value="1.00000"/>
  <variable name="u_1" index="156" value="17.00000"/>
  <variable name="u_2" index="157" value="62.00000"/>
  <variable name="u_3" index="158" value="30.00000"/>
  <variable name="u_4" index="159" value="58.00000"/>
  <variable name="u_5" index="160" value="56.00000"/>
  <variable name="u_6" index="161" value="32.00000"/>
  <variable name="u_7" index="162" value="61.00000"/>
  <variable name="u_8" index="163" value="15.00000"/>
  <variable name="u_9" index="164" value="47.00000"/>
  <variable name="u_10" index="165" value="57.00000"/>
  <variable name="u_11" index="166" value="62.00000"/>
  <variable name="u_12" index="167" value="59.00000"/>
 </variables>
</CPLEXSolution>
